feasible solution found by trivial heuristic after 0.0 seconds, objective value 0.000000e+00
presolving:
(round 1, fast)       3 del vars, 3004 del conss, 0 add conss, 3 chg bounds, 0 chg sides, 0 chg coeffs, 0 upgd conss, 0 impls, 14955 clqs
(round 2, fast)       3 del vars, 3030 del conss, 0 add conss, 3 chg bounds, 0 chg sides, 0 chg coeffs, 0 upgd conss, 0 impls, 14955 clqs
   (0.1s) running MILP presolver
   (0.1s) MILP presolver (2 rounds): 0 aggregations, 2 fixings, 0 bound changes
(round 3, exhaustive) 5 del vars, 8488 del conss, 0 add conss, 3 chg bounds, 5449 chg sides, 0 chg coeffs, 0 upgd conss, 0 impls, 14949 clqs
   (1.5s) running MILP presolver
   (1.5s) MILP presolver found nothing
(round 4, exhaustive) 5 del vars, 8488 del conss, 0 add conss, 3 chg bounds, 5449 chg sides, 0 chg coeffs, 9500 upgd conss, 0 impls, 14949 clqs
   (1.6s) probing: 51/2995 (1.7%) - 0 fixings, 0 aggregations, 0 implications, 0 bound changes
   (1.6s) probing aborted: 50/50 successive totally useless probings
   (1.6s) symmetry computation started: requiring (bin +, int -, cont +), (fixed: bin -, int +, cont -)
   (1.7s) no symmetry present
presolving (5 rounds: 5 fast, 3 medium, 3 exhaustive):
 5 deleted vars, 8488 deleted constraints, 0 added constraints, 3 tightened bounds, 0 added holes, 5449 changed sides, 0 changed coefficients
 0 implications, 14949 cliques
presolved problem has 2995 variables (2995 bin, 0 int, 0 impl, 0 cont) and 9500 constraints
   9500 constraints of type <setppc>
Presolving Time: 1.64

 time | node  | left  |LP iter|LP it/n|mem/heur|mdpt |vars |cons |rows |cuts |sepa|confs|strbr|  dualbound   | primalbound  |  gap   | compl. 
t 1.7s|     1 |     0 |     0 |     - | trivial|   0 |2995 |9500 |   0 |   0 |  0 |   0 |   0 | 4.529965e+03 | 1.994566e+00 |  Large | unknown
p 1.8s|     1 |     0 |     0 |     - |  clique|   0 |2995 |9500 |9500 |   0 |  0 |   0 |   0 | 4.529965e+03 | 1.515195e+03 | 198.97%| unknown
p 1.8s|     1 |     0 |     0 |     - |   locks|   0 |2995 |9500 |9500 |   0 |  0 |   0 |   0 | 4.529965e+03 | 1.855225e+03 | 144.17%| unknown
i 1.9s|     1 |     0 |     0 |     - |  oneopt|   0 |2995 |9500 |9500 |   0 |  0 |   0 |   0 | 4.529965e+03 | 1.872030e+03 | 141.98%| unknown
  3.6s|     1 |     0 |  6879 |     - |    57M |   0 |2995 |9500 |9500 |   0 |  0 |   0 |   0 | 2.009216e+03 | 1.872030e+03 |   7.33%| unknown
  4.4s|     1 |     0 |  7163 |     - |    58M |   0 |2995 |9500 |9506 |   6 |  1 |   0 |   0 | 2.007665e+03 | 1.872030e+03 |   7.25%| unknown
  6.0s|     1 |     0 |  7324 |     - |    62M |   0 |2995 |9500 |9510 |  10 |  2 |   0 |   0 | 2.006836e+03 | 1.872030e+03 |   7.20%| unknown
  7.5s|     1 |     0 |  7384 |     - |    66M |   0 |2995 |9500 |9513 |  13 |  3 |   0 |   0 | 2.006665e+03 | 1.872030e+03 |   7.19%| unknown
  9.3s|     1 |     0 |  7458 |     - |    71M |   0 |2995 |9500 |9515 |  15 |  4 |   0 |   0 | 2.006521e+03 | 1.872030e+03 |   7.18%| unknown
 11.2s|     1 |     0 |  7540 |     - |    73M |   0 |2995 |9500 |9517 |  17 |  5 |   0 |   0 | 2.006441e+03 | 1.872030e+03 |   7.18%| unknown
 14.4s|     1 |     0 |  7572 |     - |    80M |   0 |2995 |9500 |9519 |  19 |  6 |   0 |   0 | 2.006426e+03 | 1.872030e+03 |   7.18%| unknown
 16.2s|     1 |     0 |  7740 |     - |    85M |   0 |2995 |9500 |9522 |  22 |  7 |   0 |   0 | 2.006365e+03 | 1.872030e+03 |   7.18%| unknown
 19.2s|     1 |     0 |  7853 |     - |    92M |   0 |2995 |9500 |9524 |  24 |  8 |   0 |   0 | 2.006347e+03 | 1.872030e+03 |   7.17%| unknown
 20.0s|     1 |     0 |  7925 |     - |    99M |   0 |2995 |9500 |9527 |  27 |  9 |   0 |   0 | 2.006328e+03 | 1.872030e+03 |   7.17%| unknown
 21.1s|     1 |     0 |  8110 |     - |   101M |   0 |2995 |9500 |9531 |  31 | 10 |   0 |   0 | 2.006265e+03 | 1.872030e+03 |   7.17%| unknown
 time | node  | left  |LP iter|LP it/n|mem/heur|mdpt |vars |cons |rows |cuts |sepa|confs|strbr|  dualbound   | primalbound  |  gap   | compl. 
 21.3s|     1 |     0 |  8150 |     - |   102M |   0 |2995 |9500 |9532 |  32 | 11 |   0 |   0 | 2.006261e+03 | 1.872030e+03 |   7.17%| unknown
 21.4s|     1 |     0 |  8211 |     - |   103M |   0 |2995 |9500 |9534 |  34 | 12 |   0 |   0 | 2.006251e+03 | 1.872030e+03 |   7.17%| unknown
d21.7s|     1 |     0 |  8544 |     - |farkasdi|   0 |2995 |9500 |9534 |   0 | 12 |   0 |   0 | 2.006251e+03 | 1.872407e+03 |   7.15%| unknown
d21.7s|     1 |     0 |  8583 |     - |farkasdi|   0 |2995 |9500 |9534 |   0 | 12 |   0 |   0 | 2.006251e+03 | 2.006051e+03 |   0.01%| unknown
 22.0s|     1 |     0 |  8583 |     - |   105M |   0 |2995 |9500 |9534 |  34 | 12 |   0 |   0 | 2.006251e+03 | 2.006051e+03 |   0.01%| unknown
 22.1s|     1 |     0 |  8583 |     - |   105M |   0 |2995 |9500 |6324 |  34 | 12 |   0 |   0 | 2.006251e+03 | 2.006051e+03 |   0.01%| unknown
 22.2s|     1 |     0 |  8599 |     - |   105M |   0 |2995 |6290 |4563 |  35 | 13 |   0 |   0 | 2.006248e+03 | 2.006051e+03 |   0.01%| unknown
 22.3s|     1 |     0 |  8599 |     - |   106M |   0 |2995 |6290 |4562 |  35 | 13 |   0 |   0 | 2.006248e+03 | 2.006051e+03 |   0.01%| unknown
 22.3s|     1 |     0 |  8628 |     - |   106M |   0 |2995 |6290 |4563 |  36 | 14 |   0 |   0 | 2.006243e+03 | 2.006051e+03 |   0.01%| unknown
 22.3s|     1 |     0 |  8628 |     - |   106M |   0 |2995 |6290 |4541 |  36 | 14 |   0 |   0 | 2.006243e+03 | 2.006051e+03 |   0.01%| unknown
 22.3s|     1 |     0 |  8628 |     - |   106M |   0 |2995 |4060 |4541 |  36 | 14 |   0 |   0 | 2.006243e+03 | 2.006051e+03 |   0.01%| unknown
 22.5s|     1 |     0 |  8647 |     - |   106M |   0 |2995 |4060 |4542 |  37 | 15 |   0 |   0 | 2.006241e+03 | 2.006051e+03 |   0.01%| unknown
 22.5s|     1 |     0 |  8647 |     - |   106M |   0 |2995 |4060 |4529 |  37 | 15 |   0 |   0 | 2.006241e+03 | 2.006051e+03 |   0.01%| unknown
 22.5s|     1 |     0 |  8647 |     - |   106M |   0 |2995 |4053 |4529 |  37 | 16 |   0 |   0 | 2.006241e+03 | 2.006051e+03 |   0.01%| unknown
 22.6s|     1 |     0 |  8685 |     - |   107M |   0 |2995 |4053 |4531 |  39 | 17 |   0 |   0 | 2.006238e+03 | 2.006051e+03 |   0.01%| unknown
 time | node  | left  |LP iter|LP it/n|mem/heur|mdpt |vars |cons |rows |cuts |sepa|confs|strbr|  dualbound   | primalbound  |  gap   | compl. 
 22.7s|     1 |     0 |  8685 |     - |   107M |   0 |2995 |4053 |4520 |  39 | 17 |   0 |   0 | 2.006238e+03 | 2.006051e+03 |   0.01%| unknown
 22.7s|     1 |     0 |  8711 |     - |   107M |   0 |2995 |4053 |4522 |  41 | 18 |   0 |   0 | 2.006234e+03 | 2.006051e+03 |   0.01%| unknown
 22.7s|     1 |     0 |  8711 |     - |   107M |   0 |2995 |4053 |4521 |  41 | 18 |   0 |   0 | 2.006234e+03 | 2.006051e+03 |   0.01%| unknown
 22.7s|     1 |     0 |  8711 |     - |   107M |   0 |2995 |4024 |4521 |  41 | 18 |   0 |   0 | 2.006234e+03 | 2.006051e+03 |   0.01%| unknown
 22.9s|     1 |     0 |  8733 |     - |   107M |   0 |2995 |4024 |4520 |  42 | 19 |   0 |   0 | 2.006231e+03 | 2.006051e+03 |   0.01%| unknown
 22.9s|     1 |     0 |  8733 |     - |   107M |   0 |2995 |4024 |4502 |  42 | 19 |   0 |   0 | 2.006231e+03 | 2.006051e+03 |   0.01%| unknown
(run 1, node 1) restarting after 802 global fixings of integer variables

(restart) converted 40 cuts from the global cut pool into linear constraints

presolving:
(round 1, fast)       949 del vars, 321 del conss, 0 add conss, 0 chg bounds, 0 chg sides, 0 chg coeffs, 0 upgd conss, 0 impls, 4202 clqs
(round 2, fast)       990 del vars, 518 del conss, 0 add conss, 0 chg bounds, 0 chg sides, 0 chg coeffs, 0 upgd conss, 0 impls, 4078 clqs
(round 3, fast)       1004 del vars, 568 del conss, 0 add conss, 0 chg bounds, 0 chg sides, 0 chg coeffs, 0 upgd conss, 0 impls, 4045 clqs
(round 4, fast)       1004 del vars, 576 del conss, 0 add conss, 0 chg bounds, 0 chg sides, 0 chg coeffs, 0 upgd conss, 0 impls, 4045 clqs
(round 5, fast)       1006 del vars, 578 del conss, 0 add conss, 0 chg bounds, 0 chg sides, 0 chg coeffs, 0 upgd conss, 0 impls, 4043 clqs
   (23.0s) running MILP presolver
   (23.0s) MILP presolver (2 rounds): 0 aggregations, 5 fixings, 0 bound changes
(round 6, medium)     1139 del vars, 707 del conss, 0 add conss, 0 chg bounds, 0 chg sides, 12 chg coeffs, 0 upgd conss, 0 impls, 3864 clqs
(round 7, fast)       1150 del vars, 733 del conss, 0 add conss, 0 chg bounds, 0 chg sides, 12 chg coeffs, 0 upgd conss, 0 impls, 3825 clqs
(round 8, fast)       1152 del vars, 739 del conss, 0 add conss, 0 chg bounds, 0 chg sides, 12 chg coeffs, 0 upgd conss, 0 impls, 3820 clqs
(round 9, medium)     1171 del vars, 757 del conss, 0 add conss, 0 chg bounds, 0 chg sides, 15 chg coeffs, 0 upgd conss, 0 impls, 3798 clqs
(round 10, exhaustive) 1172 del vars, 831 del conss, 0 add conss, 0 chg bounds, 0 chg sides, 15 chg coeffs, 0 upgd conss, 0 impls, 3797 clqs
(round 11, fast)       1174 del vars, 835 del conss, 0 add conss, 0 chg bounds, 0 chg sides, 15 chg coeffs, 0 upgd conss, 0 impls, 3787 clqs
(round 12, fast)       1176 del vars, 842 del conss, 0 add conss, 0 chg bounds, 0 chg sides, 15 chg coeffs, 0 upgd conss, 0 impls, 3782 clqs
(round 13, medium)     1182 del vars, 844 del conss, 0 add conss, 0 chg bounds, 0 chg sides, 19 chg coeffs, 0 upgd conss, 0 impls, 3772 clqs
(round 14, exhaustive) 1182 del vars, 844 del conss, 0 add conss, 0 chg bounds, 0 chg sides, 19 chg coeffs, 40 upgd conss, 0 impls, 3772 clqs
presolving (15 rounds: 15 fast, 6 medium, 3 exhaustive):
 1182 deleted vars, 845 deleted constraints, 0 added constraints, 0 tightened bounds, 0 added holes, 0 changed sides, 19 changed coefficients
 0 implications, 3772 cliques
presolved problem has 1813 variables (1813 bin, 0 int, 0 impl, 0 cont) and 3213 constraints
     38 constraints of type <knapsack>
   3175 constraints of type <setppc>
Presolving Time: 1.85
transformed 2/48 original solutions to the transformed problem space

 time | node  | left  |LP iter|LP it/n|mem/heur|mdpt |vars |cons |rows |cuts |sepa|confs|strbr|  dualbound   | primalbound  |  gap   | compl. 
 23.7s|     1 |     0 | 13164 |     - |   105M |   0 |1813 |3213 |3213 |   0 |  0 |   0 |   0 | 2.006231e+03 | 2.006051e+03 |   0.01%| unknown
 23.7s|     1 |     0 | 13164 |     - |   105M |   0 |1813 |3213 |3065 |   0 |  0 |   0 |   0 | 2.006231e+03 | 2.006051e+03 |   0.01%| unknown
 24.3s|     1 |     0 | 13209 |     - |   106M |   0 |1813 |3065 |2739 |   2 |  1 |   0 |   0 | 2.006213e+03 | 2.006051e+03 |   0.01%| unknown
 24.3s|     1 |     0 | 13209 |     - |   106M |   0 |1813 |3065 |2735 |   2 |  1 |   0 |   0 | 2.006213e+03 | 2.006051e+03 |   0.01%| unknown
 25.2s|     1 |     0 | 13284 |     - |   110M |   0 |1813 |2733 |2705 |   4 |  2 |   0 |   0 | 2.006193e+03 | 2.006051e+03 |   0.01%| unknown
 25.3s|     1 |     0 | 13284 |     - |   110M |   0 |1813 |2733 |2699 |   4 |  2 |   0 |   0 | 2.006193e+03 | 2.006051e+03 |   0.01%| unknown
 26.3s|     1 |     0 | 13345 |     - |   116M |   0 |1813 |2695 |2687 |   6 |  3 |   0 |   0 | 2.006170e+03 | 2.006051e+03 |   0.01%| unknown
 26.3s|     1 |     0 | 13345 |     - |   116M |   0 |1813 |2695 |2658 |   6 |  3 |   0 |   0 | 2.006170e+03 | 2.006051e+03 |   0.01%| unknown
 27.3s|     1 |     0 | 13411 |     - |   120M |   0 |1813 |2652 |2645 |   8 |  4 |   0 |   0 | 2.006157e+03 | 2.006051e+03 |   0.01%| unknown
 27.3s|     1 |     0 | 13411 |     - |   120M |   0 |1813 |2652 |2643 |   8 |  4 |   0 |   0 | 2.006157e+03 | 2.006051e+03 |   0.01%| unknown
 28.3s|     1 |     0 | 13471 |     - |   123M |   0 |1813 |2635 |2629 |   9 |  5 |   0 |   0 | 2.006146e+03 | 2.006051e+03 |   0.00%| unknown
 28.3s|     1 |     0 | 13471 |     - |   124M |   0 |1813 |2635 |2626 |   9 |  5 |   0 |   0 | 2.006146e+03 | 2.006051e+03 |   0.00%| unknown
 29.4s|     1 |     0 | 13525 |     - |   129M |   0 |1813 |2617 |2624 |  11 |  6 |   0 |   0 | 2.006134e+03 | 2.006051e+03 |   0.00%| unknown
 29.4s|     1 |     0 | 13525 |     - |   130M |   0 |1813 |2617 |2619 |  11 |  6 |   0 |   0 | 2.006134e+03 | 2.006051e+03 |   0.00%| unknown
 30.4s|     1 |     0 | 13583 |     - |   134M |   0 |1813 |2608 |2614 |  12 |  7 |   0 |   0 | 2.006119e+03 | 2.006051e+03 |   0.00%| unknown
 time | node  | left  |LP iter|LP it/n|mem/heur|mdpt |vars |cons |rows |cuts |sepa|confs|strbr|  dualbound   | primalbound  |  gap   | compl. 
 30.5s|     1 |     0 | 13583 |     - |   135M |   0 |1813 |2608 |2614 |  12 |  7 |   0 |   0 | 2.006119e+03 | 2.006051e+03 |   0.00%| unknown
 31.6s|     1 |     0 | 13644 |     - |   140M |   0 |1813 |2602 |2614 |  14 |  8 |   0 |   0 | 2.006112e+03 | 2.006051e+03 |   0.00%| unknown
 31.6s|     1 |     0 | 13644 |     - |   140M |   0 |1813 |2602 |2610 |  14 |  8 |   0 |   0 | 2.006112e+03 | 2.006051e+03 |   0.00%| unknown
 32.5s|     1 |     0 | 13663 |     - |   144M |   0 |1813 |2596 |2603 |  15 |  9 |   0 |   0 | 2.006110e+03 | 2.006051e+03 |   0.00%| unknown
 33.5s|     1 |     0 | 13703 |     - |   149M |   0 |1813 |2588 |2605 |  17 | 10 |   0 |   0 | 2.006108e+03 | 2.006051e+03 |   0.00%| unknown
 33.5s|     1 |     0 | 13703 |     - |   149M |   0 |1813 |2588 |2603 |  17 | 10 |   0 |   0 | 2.006108e+03 | 2.006051e+03 |   0.00%| unknown
 33.8s|     1 |     0 | 13768 |     - |   149M |   0 |1813 |2586 |2599 |  19 | 11 |   0 |   0 | 2.006102e+03 | 2.006051e+03 |   0.00%| unknown
 33.9s|     1 |     0 | 13768 |     - |   149M |   0 |1813 |2586 |2597 |  19 | 11 |   0 |   0 | 2.006102e+03 | 2.006051e+03 |   0.00%| unknown
 33.9s|     1 |     0 | 13768 |     - |   149M |   0 |1813 |2360 |2597 |  19 | 11 |   0 |   0 | 2.006102e+03 | 2.006051e+03 |   0.00%| unknown
 34.2s|     1 |     0 | 13784 |     - |   150M |   0 |1813 |2360 |2598 |  20 | 12 |   0 |   0 | 2.006102e+03 | 2.006051e+03 |   0.00%| unknown
 34.5s|     1 |     0 | 13820 |     - |   150M |   0 |1813 |2360 |2599 |  21 | 13 |   0 |   0 | 2.006097e+03 | 2.006051e+03 |   0.00%| unknown
 34.5s|     1 |     0 | 13820 |     - |   150M |   0 |1813 |2360 |2592 |  21 | 13 |   0 |   0 | 2.006097e+03 | 2.006051e+03 |   0.00%| unknown
 34.8s|     1 |     0 | 13836 |     - |   150M |   0 |1813 |2359 |2592 |  22 | 14 |   0 |   0 | 2.006096e+03 | 2.006051e+03 |   0.00%| unknown
 34.9s|     1 |     0 | 13836 |     - |   150M |   0 |1813 |2359 |2592 |  22 | 14 |   0 |   0 | 2.006096e+03 | 2.006051e+03 |   0.00%| unknown
 35.2s|     1 |     0 | 13867 |     - |   150M |   0 |1813 |2358 |2587 |  23 | 15 |   0 |   0 | 2.006094e+03 | 2.006051e+03 |   0.00%| unknown
 time | node  | left  |LP iter|LP it/n|mem/heur|mdpt |vars |cons |rows |cuts |sepa|confs|strbr|  dualbound   | primalbound  |  gap   | compl. 
 35.2s|     1 |     0 | 13867 |     - |   150M |   0 |1813 |2358 |2587 |  23 | 15 |   0 |   0 | 2.006094e+03 | 2.006051e+03 |   0.00%| unknown
 35.5s|     1 |     0 | 13890 |     - |   150M |   0 |1813 |2352 |2587 |  24 | 16 |   0 |   0 | 2.006092e+03 | 2.006051e+03 |   0.00%| unknown
 35.5s|     1 |     0 | 13890 |     - |   151M |   0 |1813 |2352 |2586 |  24 | 16 |   0 |   0 | 2.006092e+03 | 2.006051e+03 |   0.00%| unknown
 35.8s|     1 |     0 | 13938 |     - |   151M |   0 |1813 |2350 |2586 |  28 | 17 |   0 |   0 | 2.006085e+03 | 2.006051e+03 |   0.00%| unknown
 35.9s|     1 |     0 | 13938 |     - |   151M |   0 |1813 |2350 |2583 |  28 | 17 |   0 |   0 | 2.006085e+03 | 2.006051e+03 |   0.00%| unknown
 36.2s|     1 |     0 | 13944 |     - |   151M |   0 |1813 |2347 |2581 |  29 | 18 |   0 |   0 | 2.006085e+03 | 2.006051e+03 |   0.00%| unknown
 36.5s|     1 |     0 | 13979 |     - |   151M |   0 |1813 |2344 |2583 |  31 | 19 |   0 |   0 | 2.006078e+03 | 2.006051e+03 |   0.00%| unknown
 36.5s|     1 |     0 | 13979 |     - |   151M |   0 |1813 |2344 |2581 |  31 | 19 |   0 |   0 | 2.006078e+03 | 2.006051e+03 |   0.00%| unknown
 36.8s|     1 |     0 | 14030 |     - |   151M |   0 |1813 |2342 |2565 |  32 | 20 |   0 |   0 | 2.006073e+03 | 2.006051e+03 |   0.00%| unknown
 36.9s|     1 |     0 | 14030 |     - |   151M |   0 |1813 |2342 |2560 |  32 | 20 |   0 |   0 | 2.006073e+03 | 2.006051e+03 |   0.00%| unknown
 37.2s|     1 |     0 | 14034 |     - |   151M |   0 |1813 |2320 |2559 |  33 | 21 |   0 |   0 | 2.006073e+03 | 2.006051e+03 |   0.00%| unknown
 37.5s|     1 |     0 | 14034 |     - |   151M |   0 |1813 |2290 |2559 |  33 | 22 |   0 |   0 | 2.006073e+03 | 2.006051e+03 |   0.00%| unknown
 37.8s|     1 |     0 | 14270 |     - |   152M |   0 |1813 |2291 |2559 |  33 | 24 |   2 |   0 | 2.006051e+03 | 2.006051e+03 |   0.00%| unknown

SCIP Status        : problem is solved [optimal solution found]
Solving Time (sec) : 37.83
Solving Nodes      : 1 (total of 2 nodes in 2 runs)
Primal Bound       : +2.00605080459955e+03 (89 solutions)
Dual Bound         : +2.00605080459955e+03
Gap                : 0.00 %
Solve Status: optimal
Solve Time: 37.84 seconds
